; benchmark generated from python API
(set-info :status unknown)
(declare-fun args_0_8 () (_ BitVec 8))
(declare-fun strlen_77_64 () (_ BitVec 64))
(declare-fun args_1_8 () (_ BitVec 8))
(declare-fun strlen_79_64 () (_ BitVec 64))
(declare-fun args_2_8 () (_ BitVec 8))
(declare-fun strlen_81_64 () (_ BitVec 64))
(declare-fun strlen_102_64 () (_ BitVec 64))
(declare-fun strlen_105_64 () (_ BitVec 64))
(declare-fun strlen_110_64 () (_ BitVec 64))
(declare-fun strlen_150_64 () (_ BitVec 64))
(declare-fun strlen_166_64 () (_ BitVec 64))
(declare-fun strlen_185_64 () (_ BitVec 64))
(declare-fun args_3_8 () (_ BitVec 8))
(declare-fun strlen_205_64 () (_ BitVec 64))
(declare-fun args_4_8 () (_ BitVec 8))
(declare-fun strlen_229_64 () (_ BitVec 64))
(declare-fun args_5_16 () (_ BitVec 16))
(declare-fun strlen_251_64 () (_ BitVec 64))
(declare-fun args_6_16 () (_ BitVec 16))
(declare-fun strlen_282_64 () (_ BitVec 64))
(declare-fun args_7_16 () (_ BitVec 16))
(declare-fun strlen_312_64 () (_ BitVec 64))
(declare-fun args_8_16 () (_ BitVec 16))
(declare-fun strlen_344_64 () (_ BitVec 64))
(declare-fun args_9_16 () (_ BitVec 16))
(declare-fun strlen_376_64 () (_ BitVec 64))
(declare-fun args_10_32 () (_ BitVec 32))
(declare-fun strlen_411_64 () (_ BitVec 64))
(declare-fun args_11_32 () (_ BitVec 32))
(declare-fun strlen_445_64 () (_ BitVec 64))
(declare-fun args_12_32 () (_ BitVec 32))
(declare-fun strlen_480_64 () (_ BitVec 64))
(declare-fun args_13_32 () (_ BitVec 32))
(declare-fun strlen_516_64 () (_ BitVec 64))
(declare-fun args_14_32 () (_ BitVec 32))
(declare-fun strlen_553_64 () (_ BitVec 64))
(declare-fun args_15_64 () (_ BitVec 64))
(declare-fun strlen_592_64 () (_ BitVec 64))
(declare-fun args_16_64 () (_ BitVec 64))
(declare-fun strlen_631_64 () (_ BitVec 64))
(declare-fun args_17_64 () (_ BitVec 64))
(declare-fun strlen_670_64 () (_ BitVec 64))
(declare-fun args_18_64 () (_ BitVec 64))
(declare-fun strlen_707_64 () (_ BitVec 64))
(declare-fun args_19_64 () (_ BitVec 64))
(declare-fun sys_time_1033_64 () (_ BitVec 64))
(declare-fun sys_time_1042_64 () (_ BitVec 64))
(assert
 (let (($x69 (= (_ bv0 8) args_0_8)))
 (not $x69)))
(assert
 (= (_ bv1 64) strlen_77_64))
(assert
 (let (($x359 (= (_ bv0 8) args_1_8)))
 (not $x359)))
(assert
 (= (_ bv1 64) strlen_79_64))
(assert
 (= (_ bv0 8) args_2_8))
(assert
 (= (_ bv0 64) strlen_81_64))
(assert
 (= (_ bv1 64) strlen_102_64))
(assert
 (= (_ bv1 64) strlen_105_64))
(assert
 (= (_ bv1 64) strlen_110_64))
(assert
 (= (_ bv1 64) strlen_150_64))
(assert
 (= (_ bv0 64) strlen_166_64))
(assert
 (let ((?x5404 (bvadd (_ bv576460752303357830 64) strlen_185_64)))
 (let (($x845 (= (_ bv0 8) args_3_8)))
 (let ((?x277 (ite $x845 (_ bv576460752303357830 64) (_ bv576460752303357831 64))))
 (= ?x277 ?x5404)))))
(assert
 (let ((?x8961 (bvadd (_ bv1 64) strlen_185_64)))
 (let ((?x8908 ((_ extract 63 2) ?x8961)))
 (= (_ bv0 62) ?x8908))))
(assert
 (let ((?x4612 ((_ extract 1 0) strlen_185_64)))
 (let ((?x9033 (bvadd (_ bv1 2) ?x4612)))
 (bvule ?x9033 (_ bv2 2)))))
(assert
 (bvule strlen_185_64 (_ bv18446744073709551614 64)))
(assert
 (let ((?x2085 (bvadd (_ bv576460752303357832 64) strlen_205_64)))
 (let (($x1140 (= (_ bv0 8) args_4_8)))
 (let ((?x1058 (ite $x1140 (_ bv576460752303357832 64) (_ bv576460752303357833 64))))
 (= ?x1058 ?x2085)))))
(assert
 (let ((?x10868 (bvadd (_ bv1 64) strlen_205_64)))
 (let ((?x10722 ((_ extract 63 2) ?x10868)))
 (= (_ bv0 62) ?x10722))))
(assert
 (let ((?x10926 ((_ extract 1 0) strlen_205_64)))
 (let ((?x10795 (bvadd (_ bv1 2) ?x10926)))
 (bvule ?x10795 (_ bv2 2)))))
(assert
 (bvule strlen_205_64 (_ bv18446744073709551614 64)))
(assert
 (let ((?x12633 (bvadd (_ bv576460752303357834 64) strlen_229_64)))
 (let ((?x1473 ((_ extract 7 0) args_5_16)))
 (let (($x1480 (= (_ bv0 8) ?x1473)))
 (let ((?x2699 (ite $x1480 (_ bv576460752303357835 64) (_ bv576460752303357836 64))))
 (let ((?x1474 ((_ extract 15 8) args_5_16)))
 (let (($x1010 (= (_ bv0 8) ?x1474)))
 (let ((?x912 (ite $x1010 (_ bv576460752303357834 64) ?x2699)))
 (= ?x912 ?x12633)))))))))
(assert
 (let ((?x12754 (bvadd (_ bv1 64) strlen_229_64)))
 (let ((?x13229 ((_ extract 63 2) ?x12754)))
 (= (_ bv0 62) ?x13229))))
(assert
 (bvule strlen_229_64 (_ bv18446744073709551614 64)))
(assert
 (let ((?x15147 (bvadd (_ bv576460752303357837 64) strlen_251_64)))
 (let ((?x1906 ((_ extract 7 0) args_6_16)))
 (let (($x1220 (= (_ bv0 8) ?x1906)))
 (let ((?x2396 (ite $x1220 (_ bv576460752303357838 64) (_ bv576460752303357839 64))))
 (let ((?x1646 ((_ extract 15 8) args_6_16)))
 (let (($x1544 (= (_ bv0 8) ?x1646)))
 (let ((?x2401 (ite $x1544 (_ bv576460752303357837 64) ?x2396)))
 (= ?x2401 ?x15147)))))))))
(assert
 (let ((?x15361 (bvadd (_ bv1 64) strlen_251_64)))
 (let ((?x15259 ((_ extract 63 2) ?x15361)))
 (= (_ bv0 62) ?x15259))))
(assert
 (bvule strlen_251_64 (_ bv18446744073709551614 64)))
(assert
 (let ((?x18493 (bvadd (_ bv576460752303357840 64) strlen_282_64)))
 (let ((?x944 ((_ extract 7 0) args_7_16)))
 (let (($x2153 (= (_ bv0 8) ?x944)))
 (let ((?x4174 (ite $x2153 (_ bv576460752303357841 64) (_ bv576460752303357842 64))))
 (let ((?x2056 ((_ extract 15 8) args_7_16)))
 (let (($x2419 (= (_ bv0 8) ?x2056)))
 (let ((?x3587 (ite $x2419 (_ bv576460752303357840 64) ?x4174)))
 (= ?x3587 ?x18493)))))))))
(assert
 (let ((?x18641 (bvadd (_ bv1 64) strlen_282_64)))
 (let ((?x18716 ((_ extract 63 2) ?x18641)))
 (= (_ bv0 62) ?x18716))))
(assert
 (bvule strlen_282_64 (_ bv18446744073709551614 64)))
(assert
 (let ((?x20313 (bvadd (_ bv576460752303357843 64) strlen_312_64)))
 (let ((?x2491 ((_ extract 7 0) args_8_16)))
 (let (($x3207 (= (_ bv0 8) ?x2491)))
 (let ((?x3024 (ite $x3207 (_ bv576460752303357844 64) (_ bv576460752303357845 64))))
 (let ((?x2766 ((_ extract 15 8) args_8_16)))
 (let (($x3226 (= (_ bv0 8) ?x2766)))
 (let ((?x3020 (ite $x3226 (_ bv576460752303357843 64) ?x3024)))
 (= ?x3020 ?x20313)))))))))
(assert
 (let ((?x21832 (bvadd (_ bv1 64) strlen_312_64)))
 (let ((?x21551 ((_ extract 63 2) ?x21832)))
 (= (_ bv0 62) ?x21551))))
(assert
 (bvule strlen_312_64 (_ bv18446744073709551614 64)))
(assert
 (let ((?x22003 (bvadd (_ bv576460752303357846 64) strlen_344_64)))
 (let ((?x3735 ((_ extract 7 0) args_9_16)))
 (let (($x3581 (= (_ bv0 8) ?x3735)))
 (let ((?x4338 (ite $x3581 (_ bv576460752303357847 64) (_ bv576460752303357848 64))))
 (let ((?x3102 ((_ extract 15 8) args_9_16)))
 (let (($x3771 (= (_ bv0 8) ?x3102)))
 (let ((?x4333 (ite $x3771 (_ bv576460752303357846 64) ?x4338)))
 (= ?x4333 ?x22003)))))))))
(assert
 (let ((?x20154 (bvadd (_ bv1 64) strlen_344_64)))
 (let ((?x24469 ((_ extract 63 2) ?x20154)))
 (= (_ bv0 62) ?x24469))))
(assert
 (bvule strlen_344_64 (_ bv18446744073709551614 64)))
(assert
 (let ((?x29185 (bvadd (_ bv576460752303357849 64) strlen_376_64)))
 (let ((?x3490 ((_ extract 7 0) args_10_32)))
 (let (($x3139 (= (_ bv0 8) ?x3490)))
 (let ((?x5565 (ite $x3139 (_ bv576460752303357852 64) (_ bv576460752303357853 64))))
 (let ((?x3761 ((_ extract 15 8) args_10_32)))
 (let (($x3847 (= (_ bv0 8) ?x3761)))
 (let ((?x5410 (ite $x3847 (_ bv576460752303357851 64) ?x5565)))
 (let ((?x3388 ((_ extract 23 16) args_10_32)))
 (let (($x3778 (= (_ bv0 8) ?x3388)))
 (let ((?x5402 (ite $x3778 (_ bv576460752303357850 64) ?x5410)))
 (let ((?x3227 ((_ extract 31 24) args_10_32)))
 (let (($x3588 (= (_ bv0 8) ?x3227)))
 (let ((?x5394 (ite $x3588 (_ bv576460752303357849 64) ?x5402)))
 (= ?x5394 ?x29185)))))))))))))))
(assert
 (let ((?x27664 (bvadd (_ bv1 64) strlen_376_64)))
 (let ((?x28795 ((_ extract 63 3) ?x27664)))
 (= (_ bv0 61) ?x28795))))
(assert
 (let ((?x29254 ((_ extract 2 0) strlen_376_64)))
 (let ((?x29263 (bvadd (_ bv1 3) ?x29254)))
 (bvule ?x29263 (_ bv5 3)))))
(assert
 (bvule strlen_376_64 (_ bv18446744073709551614 64)))
(assert
 (let ((?x32077 (bvadd (_ bv576460752303357854 64) strlen_411_64)))
 (let ((?x5702 ((_ extract 7 0) args_11_32)))
 (let (($x5773 (= (_ bv0 8) ?x5702)))
 (let ((?x6262 (ite $x5773 (_ bv576460752303357857 64) (_ bv576460752303357858 64))))
 (let ((?x5780 ((_ extract 15 8) args_11_32)))
 (let (($x5788 (= (_ bv0 8) ?x5780)))
 (let ((?x6329 (ite $x5788 (_ bv576460752303357856 64) ?x6262)))
 (let ((?x5688 ((_ extract 23 16) args_11_32)))
 (let (($x5775 (= (_ bv0 8) ?x5688)))
 (let ((?x7835 (ite $x5775 (_ bv576460752303357855 64) ?x6329)))
 (let ((?x5760 ((_ extract 31 24) args_11_32)))
 (let (($x5875 (= (_ bv0 8) ?x5760)))
 (let ((?x7768 (ite $x5875 (_ bv576460752303357854 64) ?x7835)))
 (= ?x7768 ?x32077)))))))))))))))
(assert
 (let ((?x31853 (bvadd (_ bv1 64) strlen_411_64)))
 (let ((?x28824 ((_ extract 63 3) ?x31853)))
 (= (_ bv0 61) ?x28824))))
(assert
 (let ((?x32052 ((_ extract 2 0) strlen_411_64)))
 (let ((?x33518 (bvadd (_ bv1 3) ?x32052)))
 (bvule ?x33518 (_ bv5 3)))))
(assert
 (bvule strlen_411_64 (_ bv18446744073709551614 64)))
(assert
 (let ((?x35325 (bvadd (_ bv576460752303357859 64) strlen_445_64)))
 (let ((?x6440 ((_ extract 7 0) args_12_32)))
 (let (($x6436 (= (_ bv0 8) ?x6440)))
 (let ((?x7707 (ite $x6436 (_ bv576460752303357862 64) (_ bv576460752303357863 64))))
 (let ((?x7075 ((_ extract 15 8) args_12_32)))
 (let (($x5268 (= (_ bv0 8) ?x7075)))
 (let ((?x7895 (ite $x5268 (_ bv576460752303357861 64) ?x7707)))
 (let ((?x5265 ((_ extract 23 16) args_12_32)))
 (let (($x4918 (= (_ bv0 8) ?x5265)))
 (let ((?x8083 (ite $x4918 (_ bv576460752303357860 64) ?x7895)))
 (let ((?x5236 ((_ extract 31 24) args_12_32)))
 (let (($x7048 (= (_ bv0 8) ?x5236)))
 (let ((?x8084 (ite $x7048 (_ bv576460752303357859 64) ?x8083)))
 (= ?x8084 ?x35325)))))))))))))))
(assert
 (let ((?x36114 (bvadd (_ bv1 64) strlen_445_64)))
 (let ((?x35909 ((_ extract 63 3) ?x36114)))
 (= (_ bv0 61) ?x35909))))
(assert
 (let ((?x34534 ((_ extract 2 0) strlen_445_64)))
 (let ((?x36148 (bvadd (_ bv1 3) ?x34534)))
 (bvule ?x36148 (_ bv5 3)))))
(assert
 (bvule strlen_445_64 (_ bv18446744073709551614 64)))
(assert
 (let ((?x40189 (bvadd (_ bv576460752303357864 64) strlen_480_64)))
 (let ((?x8592 ((_ extract 7 0) args_13_32)))
 (let (($x8567 (= (_ bv0 8) ?x8592)))
 (let ((?x12896 (ite $x8567 (_ bv576460752303357867 64) (_ bv576460752303357868 64))))
 (let ((?x8497 ((_ extract 15 8) args_13_32)))
 (let (($x8524 (= (_ bv0 8) ?x8497)))
 (let ((?x12930 (ite $x8524 (_ bv576460752303357866 64) ?x12896)))
 (let ((?x8547 ((_ extract 23 16) args_13_32)))
 (let (($x7742 (= (_ bv0 8) ?x8547)))
 (let ((?x12843 (ite $x7742 (_ bv576460752303357865 64) ?x12930)))
 (let ((?x8516 ((_ extract 31 24) args_13_32)))
 (let (($x8529 (= (_ bv0 8) ?x8516)))
 (let ((?x12905 (ite $x8529 (_ bv576460752303357864 64) ?x12843)))
 (= ?x12905 ?x40189)))))))))))))))
(assert
 (let ((?x40489 (bvadd (_ bv1 64) strlen_480_64)))
 (let ((?x40389 ((_ extract 63 3) ?x40489)))
 (= (_ bv0 61) ?x40389))))
(assert
 (let ((?x38901 ((_ extract 2 0) strlen_480_64)))
 (let ((?x40585 (bvadd (_ bv1 3) ?x38901)))
 (bvule ?x40585 (_ bv5 3)))))
(assert
 (bvule strlen_480_64 (_ bv18446744073709551614 64)))
(assert
 (let ((?x45147 (bvadd (_ bv576460752303357869 64) strlen_516_64)))
 (let ((?x8685 ((_ extract 7 0) args_14_32)))
 (let (($x8778 (= (_ bv0 8) ?x8685)))
 (let ((?x13011 (ite $x8778 (_ bv576460752303357872 64) (_ bv576460752303357873 64))))
 (let ((?x8754 ((_ extract 15 8) args_14_32)))
 (let (($x8818 (= (_ bv0 8) ?x8754)))
 (let ((?x13039 (ite $x8818 (_ bv576460752303357871 64) ?x13011)))
 (let ((?x8747 ((_ extract 23 16) args_14_32)))
 (let (($x8600 (= (_ bv0 8) ?x8747)))
 (let ((?x13055 (ite $x8600 (_ bv576460752303357870 64) ?x13039)))
 (let ((?x8789 ((_ extract 31 24) args_14_32)))
 (let (($x8713 (= (_ bv0 8) ?x8789)))
 (let ((?x13225 (ite $x8713 (_ bv576460752303357869 64) ?x13055)))
 (= ?x13225 ?x45147)))))))))))))))
(assert
 (let ((?x43628 (bvadd (_ bv1 64) strlen_516_64)))
 (let ((?x45441 ((_ extract 63 3) ?x43628)))
 (= (_ bv0 61) ?x45441))))
(assert
 (let ((?x35715 ((_ extract 2 0) strlen_516_64)))
 (let ((?x45429 (bvadd (_ bv1 3) ?x35715)))
 (bvule ?x45429 (_ bv5 3)))))
(assert
 (bvule strlen_516_64 (_ bv18446744073709551614 64)))
(assert
 (let ((?x50460 (bvadd (_ bv576460752303357874 64) strlen_553_64)))
 (let ((?x12719 ((_ extract 7 0) args_15_64)))
 (let (($x12599 (= (_ bv0 8) ?x12719)))
 (let ((?x13251 (ite $x12599 (_ bv576460752303357881 64) (_ bv576460752303357882 64))))
 (let ((?x12687 ((_ extract 15 8) args_15_64)))
 (let (($x12671 (= (_ bv0 8) ?x12687)))
 (let ((?x13247 (ite $x12671 (_ bv576460752303357880 64) ?x13251)))
 (let ((?x12566 ((_ extract 23 16) args_15_64)))
 (let (($x12715 (= (_ bv0 8) ?x12566)))
 (let ((?x13261 (ite $x12715 (_ bv576460752303357879 64) ?x13247)))
 (let ((?x12654 ((_ extract 31 24) args_15_64)))
 (let (($x12645 (= (_ bv0 8) ?x12654)))
 (let ((?x12676 (ite $x12645 (_ bv576460752303357878 64) ?x13261)))
 (let ((?x12395 ((_ extract 39 32) args_15_64)))
 (let (($x12668 (= (_ bv0 8) ?x12395)))
 (let ((?x12427 (ite $x12668 (_ bv576460752303357877 64) ?x12676)))
 (let ((?x12620 ((_ extract 47 40) args_15_64)))
 (let (($x12529 (= (_ bv0 8) ?x12620)))
 (let ((?x12859 (ite $x12529 (_ bv576460752303357876 64) ?x12427)))
 (let ((?x12640 ((_ extract 55 48) args_15_64)))
 (let (($x12613 (= (_ bv0 8) ?x12640)))
 (let ((?x13528 (ite $x12613 (_ bv576460752303357875 64) ?x12859)))
 (let ((?x12684 ((_ extract 63 56) args_15_64)))
 (let (($x12730 (= (_ bv0 8) ?x12684)))
 (let ((?x13670 (ite $x12730 (_ bv576460752303357874 64) ?x13528)))
 (= ?x13670 ?x50460)))))))))))))))))))))))))))
(assert
 (let ((?x49186 (bvadd (_ bv1 64) strlen_553_64)))
 (let ((?x49283 ((_ extract 63 4) ?x49186)))
 (= (_ bv0 60) ?x49283))))
(assert
 (let ((?x45983 ((_ extract 3 0) strlen_553_64)))
 (let ((?x50848 (bvadd (_ bv1 4) ?x45983)))
 (bvule ?x50848 (_ bv9 4)))))
(assert
 (bvule strlen_553_64 (_ bv18446744073709551614 64)))
(assert
 (let ((?x55984 (bvadd (_ bv576460752303357883 64) strlen_592_64)))
 (let ((?x16071 ((_ extract 7 0) args_16_64)))
 (let (($x15893 (= (_ bv0 8) ?x16071)))
 (let ((?x18009 (ite $x15893 (_ bv576460752303357890 64) (_ bv576460752303357891 64))))
 (let ((?x15920 ((_ extract 15 8) args_16_64)))
 (let (($x15905 (= (_ bv0 8) ?x15920)))
 (let ((?x18038 (ite $x15905 (_ bv576460752303357889 64) ?x18009)))
 (let ((?x16120 ((_ extract 23 16) args_16_64)))
 (let (($x16040 (= (_ bv0 8) ?x16120)))
 (let ((?x18044 (ite $x16040 (_ bv576460752303357888 64) ?x18038)))
 (let ((?x16091 ((_ extract 31 24) args_16_64)))
 (let (($x16125 (= (_ bv0 8) ?x16091)))
 (let ((?x18036 (ite $x16125 (_ bv576460752303357887 64) ?x18044)))
 (let ((?x16044 ((_ extract 39 32) args_16_64)))
 (let (($x16109 (= (_ bv0 8) ?x16044)))
 (let ((?x18029 (ite $x16109 (_ bv576460752303357886 64) ?x18036)))
 (let ((?x15231 ((_ extract 47 40) args_16_64)))
 (let (($x15832 (= (_ bv0 8) ?x15231)))
 (let ((?x18021 (ite $x15832 (_ bv576460752303357885 64) ?x18029)))
 (let ((?x15951 ((_ extract 55 48) args_16_64)))
 (let (($x15924 (= (_ bv0 8) ?x15951)))
 (let ((?x18015 (ite $x15924 (_ bv576460752303357884 64) ?x18021)))
 (let ((?x15821 ((_ extract 63 56) args_16_64)))
 (let (($x15881 (= (_ bv0 8) ?x15821)))
 (let ((?x18001 (ite $x15881 (_ bv576460752303357883 64) ?x18015)))
 (= ?x18001 ?x55984)))))))))))))))))))))))))))
(assert
 (let ((?x56035 (bvadd (_ bv1 64) strlen_592_64)))
 (let ((?x56299 ((_ extract 63 4) ?x56035)))
 (= (_ bv0 60) ?x56299))))
(assert
 (let ((?x56422 ((_ extract 3 0) strlen_592_64)))
 (let ((?x54110 (bvadd (_ bv1 4) ?x56422)))
 (bvule ?x54110 (_ bv9 4)))))
(assert
 (bvule strlen_592_64 (_ bv18446744073709551614 64)))
(assert
 (let ((?x62215 (bvadd (_ bv576460752303357892 64) strlen_631_64)))
 (let ((?x17285 ((_ extract 7 0) args_17_64)))
 (let (($x13048 (= (_ bv0 8) ?x17285)))
 (let ((?x19912 (ite $x13048 (_ bv576460752303357899 64) (_ bv576460752303357900 64))))
 (let ((?x16045 ((_ extract 15 8) args_17_64)))
 (let (($x16281 (= (_ bv0 8) ?x16045)))
 (let ((?x23127 (ite $x16281 (_ bv576460752303357898 64) ?x19912)))
 (let ((?x13888 ((_ extract 23 16) args_17_64)))
 (let (($x13927 (= (_ bv0 8) ?x13888)))
 (let ((?x22133 (ite $x13927 (_ bv576460752303357897 64) ?x23127)))
 (let ((?x16166 ((_ extract 31 24) args_17_64)))
 (let (($x14506 (= (_ bv0 8) ?x16166)))
 (let ((?x19735 (ite $x14506 (_ bv576460752303357896 64) ?x22133)))
 (let ((?x14555 ((_ extract 39 32) args_17_64)))
 (let (($x16257 (= (_ bv0 8) ?x14555)))
 (let ((?x20072 (ite $x16257 (_ bv576460752303357895 64) ?x19735)))
 (let ((?x16160 ((_ extract 47 40) args_17_64)))
 (let (($x17914 (= (_ bv0 8) ?x16160)))
 (let ((?x19859 (ite $x17914 (_ bv576460752303357894 64) ?x20072)))
 (let ((?x17949 ((_ extract 55 48) args_17_64)))
 (let (($x16357 (= (_ bv0 8) ?x17949)))
 (let ((?x20112 (ite $x16357 (_ bv576460752303357893 64) ?x19859)))
 (let ((?x16175 ((_ extract 63 56) args_17_64)))
 (let (($x16341 (= (_ bv0 8) ?x16175)))
 (let ((?x19993 (ite $x16341 (_ bv576460752303357892 64) ?x20112)))
 (= ?x19993 ?x62215)))))))))))))))))))))))))))
(assert
 (let ((?x62112 (bvadd (_ bv1 64) strlen_631_64)))
 (let ((?x62438 ((_ extract 63 4) ?x62112)))
 (= (_ bv0 60) ?x62438))))
(assert
 (let ((?x62407 ((_ extract 3 0) strlen_631_64)))
 (let ((?x62031 (bvadd (_ bv1 4) ?x62407)))
 (bvule ?x62031 (_ bv9 4)))))
(assert
 (bvule strlen_631_64 (_ bv18446744073709551614 64)))
(assert
 (let ((?x68125 (bvadd (_ bv576460752303357901 64) strlen_670_64)))
 (let ((?x21369 ((_ extract 7 0) args_18_64)))
 (let (($x23356 (= (_ bv0 8) ?x21369)))
 (let ((?x24376 (ite $x23356 (_ bv576460752303357908 64) (_ bv576460752303357909 64))))
 (let ((?x17981 ((_ extract 15 8) args_18_64)))
 (let (($x20999 (= (_ bv0 8) ?x17981)))
 (let ((?x24277 (ite $x20999 (_ bv576460752303357907 64) ?x24376)))
 (let ((?x23399 ((_ extract 23 16) args_18_64)))
 (let (($x23441 (= (_ bv0 8) ?x23399)))
 (let ((?x24342 (ite $x23441 (_ bv576460752303357906 64) ?x24277)))
 (let ((?x21200 ((_ extract 31 24) args_18_64)))
 (let (($x23434 (= (_ bv0 8) ?x21200)))
 (let ((?x24281 (ite $x23434 (_ bv576460752303357905 64) ?x24342)))
 (let ((?x18357 ((_ extract 39 32) args_18_64)))
 (let (($x23108 (= (_ bv0 8) ?x18357)))
 (let ((?x26188 (ite $x23108 (_ bv576460752303357904 64) ?x24281)))
 (let ((?x23328 ((_ extract 47 40) args_18_64)))
 (let (($x17902 (= (_ bv0 8) ?x23328)))
 (let ((?x26208 (ite $x17902 (_ bv576460752303357903 64) ?x26188)))
 (let ((?x15573 ((_ extract 55 48) args_18_64)))
 (let (($x23188 (= (_ bv0 8) ?x15573)))
 (let ((?x26014 (ite $x23188 (_ bv576460752303357902 64) ?x26208)))
 (let ((?x18296 ((_ extract 63 56) args_18_64)))
 (let (($x23498 (= (_ bv0 8) ?x18296)))
 (let ((?x25991 (ite $x23498 (_ bv576460752303357901 64) ?x26014)))
 (= ?x25991 ?x68125)))))))))))))))))))))))))))
(assert
 (let ((?x63502 (bvadd (_ bv1 64) strlen_670_64)))
 (let ((?x68319 ((_ extract 63 4) ?x63502)))
 (= (_ bv0 60) ?x68319))))
(assert
 (let ((?x68310 ((_ extract 3 0) strlen_670_64)))
 (let ((?x68282 (bvadd (_ bv1 4) ?x68310)))
 (bvule ?x68282 (_ bv9 4)))))
(assert
 (bvule strlen_670_64 (_ bv18446744073709551614 64)))
(assert
 (let ((?x68660 (bvadd (_ bv576460752303357910 64) strlen_707_64)))
 (let ((?x27336 ((_ extract 7 0) args_19_64)))
 (let (($x27385 (= (_ bv0 8) ?x27336)))
 (let ((?x20231 (ite $x27385 (_ bv576460752303357917 64) (_ bv576460752303357918 64))))
 (let ((?x25557 ((_ extract 15 8) args_19_64)))
 (let (($x25388 (= (_ bv0 8) ?x25557)))
 (let ((?x19999 (ite $x25388 (_ bv576460752303357916 64) ?x20231)))
 (let ((?x27267 ((_ extract 23 16) args_19_64)))
 (let (($x27378 (= (_ bv0 8) ?x27267)))
 (let ((?x20088 (ite $x27378 (_ bv576460752303357915 64) ?x19999)))
 (let ((?x25573 ((_ extract 31 24) args_19_64)))
 (let (($x27315 (= (_ bv0 8) ?x25573)))
 (let ((?x20060 (ite $x27315 (_ bv576460752303357914 64) ?x20088)))
 (let ((?x25213 ((_ extract 39 32) args_19_64)))
 (let (($x23385 (= (_ bv0 8) ?x25213)))
 (let ((?x20235 (ite $x23385 (_ bv576460752303357913 64) ?x20060)))
 (let ((?x27324 ((_ extract 47 40) args_19_64)))
 (let (($x27088 (= (_ bv0 8) ?x27324)))
 (let ((?x20237 (ite $x27088 (_ bv576460752303357912 64) ?x20235)))
 (let ((?x24874 ((_ extract 55 48) args_19_64)))
 (let (($x25431 (= (_ bv0 8) ?x24874)))
 (let ((?x20239 (ite $x25431 (_ bv576460752303357911 64) ?x20237)))
 (let ((?x27258 ((_ extract 63 56) args_19_64)))
 (let (($x26264 (= (_ bv0 8) ?x27258)))
 (let ((?x20241 (ite $x26264 (_ bv576460752303357910 64) ?x20239)))
 (= ?x20241 ?x68660)))))))))))))))))))))))))))
(assert
 (let ((?x74309 (bvadd (_ bv1 64) strlen_707_64)))
 (let ((?x70937 ((_ extract 63 4) ?x74309)))
 (= (_ bv0 60) ?x70937))))
(assert
 (let ((?x74072 ((_ extract 3 0) strlen_707_64)))
 (let ((?x74148 (bvadd (_ bv1 4) ?x74072)))
 (bvule ?x74148 (_ bv9 4)))))
(assert
 (bvule strlen_707_64 (_ bv18446744073709551614 64)))
(assert
 (bvsle (_ bv0 64) sys_time_1033_64))
(assert
 (bvsge sys_time_1042_64 sys_time_1033_64))
(maximize strlen_631_64)
(maximize strlen_411_64)
(minimize strlen_670_64)
(minimize args_3_8)
(minimize args_14_32)
(minimize args_2_8)
(maximize sys_time_1042_64)
(minimize strlen_344_64)
(maximize args_18_64)
(maximize args_3_8)
(minimize strlen_229_64)
(maximize strlen_707_64)
(maximize strlen_205_64)
(minimize args_4_8)
(maximize strlen_110_64)
(maximize strlen_185_64)
(minimize strlen_516_64)
(minimize args_16_64)
(maximize strlen_282_64)
(minimize strlen_707_64)
(maximize args_12_32)
(minimize strlen_312_64)
(maximize args_1_8)
(minimize args_10_32)
(minimize strlen_102_64)
(minimize strlen_77_64)
(minimize args_17_64)
(minimize args_11_32)
(maximize args_15_64)
(maximize args_11_32)
(maximize strlen_166_64)
(minimize strlen_376_64)
(maximize args_8_16)
(minimize strlen_110_64)
(maximize strlen_251_64)
(maximize strlen_592_64)
(minimize args_18_64)
(minimize sys_time_1033_64)
(maximize strlen_344_64)
(minimize strlen_150_64)
(minimize args_19_64)
(minimize strlen_480_64)
(minimize args_0_8)
(maximize strlen_105_64)
(minimize strlen_81_64)
(maximize strlen_102_64)
(maximize strlen_81_64)
(minimize strlen_592_64)
(maximize args_4_8)
(minimize strlen_631_64)
(maximize strlen_229_64)
(check-sat)
(get-objectives)
